tsp_instances/TSP50/instance48.tsp
NODE_COORD_SECTION
0 37 26
1 99 170
2 143 193
3 49 163
4 44 81
5 168 22
6 81 11
7 121 172
8 181 188
9 55 61
10 59 107
11 67 35
12 119 68
13 172 139
14 92 136
15 119 38
16 198 41
17 60 186
18 179 169
19 4 160
20 70 69
21 94 90
22 134 58
23 115 21
24 2 83
25 133 25
26 151 187
27 175 53
28 80 30
29 142 54
30 51 113
31 167 118
32 128 188
33 50 111
34 161 12
35 65 32
36 164 164
37 121 26
38 21 20
39 112 124
40 163 194
41 121 92
42 174 164
43 192 95
44 115 1
45 119 113
46 33 180
47 199 99
48 82 41
49 95 98
