tsp_instances/TSP50/instance48.opt.tour
TOUR_SECTION
1
36
12
49
29
7
45
24
38
16
13
23
30
26
35
6
17
28
44
48
32
14
37
43
19
9
41
27
3
33
8
2
18
4
47
20
31
34
11
15
40
46
42
50
22
21
10
5
25
39
-1